qbf_easy_train/easy_1325_SAT.qdimacs
p cnf 19 45
a 9 11 1 0
e 2 3 4 5 6 7 8 10 12 13 14 15 16 17 18 19 0
-1 2 -3 0
1 -2 -3 0
-1 -2 3 0
1 2 3 0
-4 -5 -6 0
4 5 -6 0
-4 5 6 0
4 -5 6 0
-8 7 0
-8 2 0
-7 -2 8 0
6 -8 -9 0
-6 8 -9 0
6 8 9 0
-6 -8 9 0
11 10 0
11 5 0
-10 -5 -11 0
-7 -12 -13 0
7 12 -13 0
-7 12 13 0
7 -12 13 0
14 11 0
14 -13 0
-11 13 -14 0
16 15 0
16 8 0
-15 -8 -16 0
14 -16 -17 0
-14 16 -17 0
14 16 17 0
-14 -16 17 0
9 -17 -18 0
-9 17 -18 0
9 17 18 0
-9 -17 18 0
3 18 -19 0
-3 -18 -19 0
3 -18 19 0
-3 18 19 0
17 16 0
3 19 6 -17 2 0
1 -12 4 5 0
-7 14 -16 -17 9 0
19 0
