sat_easy_train/easy_1325_SAT.dimacs
p cnf 118 397
-4 -2 0
-4 3 0
2 -3 4 0
-6 -4 0
-6 -5 0
4 5 6 0
8 6 0
8 7 0
-6 -7 -8 0
9 -8 0
9 6 0
8 -6 -9 0
1 -9 -10 0
-1 9 -10 0
1 9 10 0
-1 -9 10 0
14 -12 0
14 -13 0
12 13 -14 0
-16 -14 0
-16 15 0
14 -15 16 0
17 -11 0
17 -16 0
11 16 -17 0
18 -17 0
18 -17 0
17 -18 0
21 -11 0
21 20 0
11 -20 -21 0
22 19 0
22 21 0
-19 -21 -22 0
-18 22 -23 0
18 -22 -23 0
-18 -22 23 0
18 22 23 0
11 -16 -24 0
-11 16 -24 0
11 16 24 0
-11 -16 24 0
13 -25 -26 0
-13 25 -26 0
13 25 26 0
-13 -25 26 0
-27 26 0
-27 24 0
-26 -24 27 0
-24 -27 -28 0
24 27 -28 0
-24 27 28 0
24 -27 28 0
29 -20 0
29 -15 0
20 15 -29 0
3 30 0
-3 30 0
-31 -30 0
-31 -30 0
30 31 0
32 -29 0
32 31 0
29 -31 -32 0
33 28 0
33 32 0
-28 -32 -33 0
-34 25 -35 0
34 -25 -35 0
-34 -25 35 0
34 25 35 0
35 29 -36 0
-35 -29 -36 0
35 -29 36 0
-35 29 36 0
-37 20 0
-37 -36 0
-20 36 37 0
-38 -30 0
-38 -36 0
30 36 38 0
-39 -24 0
-39 -35 0
24 35 39 0
38 39 -40 0
-38 -39 -40 0
38 -39 40 0
-38 39 40 0
-37 -40 -41 0
37 40 -41 0
-37 40 41 0
37 -40 41 0
2 -5 -42 0
-2 5 -42 0
2 5 42 0
-2 -5 42 0
43 30 0
43 -42 0
-30 42 -43 0
-45 44 0
-45 25 0
-44 -25 45 0
46 45 0
46 -19 0
-45 19 -46 0
-43 -46 -47 0
43 46 -47 0
-43 46 47 0
43 -46 47 0
-47 48 -49 0
47 -48 -49 0
-47 -48 49 0
47 48 49 0
-50 -41 0
-50 -49 0
41 49 50 0
-26 30 -51 0
26 -30 -51 0
-26 -30 51 0
26 30 51 0
52 -24 0
52 -51 0
24 51 -52 0
-16 14 -53 0
16 -14 -53 0
-16 -14 53 0
16 14 53 0
54 -6 0
54 -34 0
6 34 -54 0
-53 -54 -55 0
53 54 -55 0
-53 54 55 0
53 -54 55 0
-56 52 0
-56 -55 0
-52 55 56 0
57 -50 0
57 56 0
50 -56 -57 0
58 -19 0
58 -53 0
19 53 -58 0
-6 58 -59 0
6 -58 -59 0
-6 -58 59 0
6 58 59 0
13 -7 -60 0
-13 7 -60 0
13 7 60 0
-13 -7 60 0
59 60 -61 0
-59 -60 -61 0
59 -60 61 0
-59 60 61 0
-30 -2 -62 0
30 2 -62 0
-30 2 62 0
30 -2 62 0
63 -29 0
63 15 0
29 -15 -63 0
-62 63 -64 0
62 -63 -64 0
-62 -63 64 0
62 63 64 0
65 44 0
65 35 0
-44 -35 -65 0
-65 -4 -66 0
65 4 -66 0
-65 4 66 0
65 -4 66 0
64 66 -67 0
-64 -66 -67 0
64 -66 67 0
-64 66 67 0
-68 6 0
-68 24 0
-6 -24 68 0
69 -68 0
69 -25 0
68 25 -69 0
-47 -69 -70 0
47 69 -70 0
-47 69 70 0
47 -69 70 0
-71 -67 0
-71 70 0
67 -70 71 0
-72 -11 0
-72 5 0
11 -5 72 0
73 14 0
73 21 0
-14 -21 -73 0
-74 73 0
-74 -44 0
-73 44 74 0
75 51 0
75 -73 0
-51 73 -75 0
-76 37 0
-76 -75 0
-37 75 76 0
76 38 -77 0
-76 -38 -77 0
76 -38 77 0
-76 38 77 0
-48 -3 -78 0
48 3 -78 0
-48 3 78 0
48 -3 78 0
77 78 -79 0
-77 -78 -79 0
77 -78 79 0
-77 78 79 0
74 -79 -80 0
-74 79 -80 0
74 79 80 0
-74 -79 80 0
72 80 -81 0
-72 -80 -81 0
72 -80 81 0
-72 80 81 0
-82 71 0
-82 81 0
-71 -81 82 0
-61 -82 -83 0
61 82 -83 0
-61 82 83 0
61 -82 83 0
85 -84 0
85 -11 0
84 11 -85 0
75 85 -86 0
-75 -85 -86 0
75 -85 86 0
-75 85 86 0
-87 -35 0
-87 3 0
35 -3 87 0
-88 -25 0
-88 -13 0
25 13 88 0
89 -87 0
89 -88 0
87 88 -89 0
-86 -89 -90 0
86 89 -90 0
-86 89 90 0
86 -89 90 0
-91 83 0
-91 -90 0
-83 90 91 0
-92 -57 0
-92 91 0
57 -91 92 0
93 -65 0
93 5 0
65 -5 -93 0
-94 42 0
-94 93 0
-42 -93 94 0
-95 -92 0
-95 -94 0
92 94 95 0
-33 95 -96 0
33 -95 -96 0
-33 -95 96 0
33 95 96 0
-97 -23 0
-97 -96 0
23 96 97 0
84 -25 -98 0
-84 25 -98 0
84 25 98 0
-84 -25 98 0
-99 24 0
-99 -98 0
-24 98 99 0
97 -99 -100 0
-97 99 -100 0
97 99 100 0
-97 -99 100 0
101 10 0
101 -100 0
-10 100 -101 0
102 -19 0
102 29 0
19 -29 -102 0
103 -43 0
103 -35 0
43 35 -103 0
104 103 0
104 35 0
-103 -35 -104 0
-105 -26 0
-105 -14 0
26 14 105 0
-3 -105 -106 0
3 105 -106 0
-3 105 106 0
3 -105 106 0
107 104 0
107 -106 0
-104 106 -107 0
-108 -5 0
-108 5 0
-107 108 -109 0
107 -108 -109 0
-107 -108 109 0
107 108 109 0
-110 -5 0
-110 -43 0
5 43 110 0
110 -53 -111 0
-110 53 -111 0
110 53 111 0
-110 -53 111 0
112 -46 0
112 65 0
46 -65 -112 0
111 112 -113 0
-111 -112 -113 0
111 -112 113 0
-111 112 113 0
76 -31 -114 0
-76 31 -114 0
76 31 114 0
-76 -31 114 0
-115 113 0
-115 114 0
-113 -114 115 0
109 115 -116 0
-109 -115 -116 0
109 -115 116 0
-109 115 116 0
117 -102 0
117 -116 0
102 116 -117 0
118 -101 0
118 117 0
101 -117 -118 0
112 60 -90 -115 67 72 0
-52 -1 -34 0
-43 -53 -55 0
-54 92 116 -43 0
-23 -35 29 14 0
30 -66 -97 21 0
90 -80 62 31 -14 0
34 -75 -13 0
59 -74 43 53 -21 55 0
22 33 -48 108 -71 0
-21 -37 100 0
-40 88 0
8 -34 77 106 0
57 112 -55 0
-109 -89 64 0
-66 91 72 0
102 -36 0
10 106 -112 0
109 -82 -2 -83 -39 0
54 -100 113 -35 111 -87 0
-25 56 0
-66 27 -87 -65 116 0
-21 -34 114 2 -61 83 0
-81 -86 17 0
-75 -58 96 11 -42 61 0
4 104 50 0
-46 4 26 22 103 107 0
-62 116 -3 115 0
11 43 116 79 3 -37 0
62 52 105 -84 0
10 -66 87 0
113 88 -61 13 90 -78 0
-4 -28 12 -23 0
83 31 55 -118 89 0
-71 -113 -86 0
-6 -33 95 -92 0
70 108 -117 37 0
-36 15 83 0
40 -108 3 0
-20 -95 -36 0
21 44 0
-58 -13 0
116 56 19 -10 111 -43 0
-17 -27 0
114 110 -44 85 0
115 -62 109 0
-43 47 106 -97 -69 0
-110 26 0
92 -98 0
-28 -55 0
67 109 110 0
85 -81 47 0
118 0
